myproject/instances/20nodes/rnd48_20.tsp
NAME : rnd48_20.tsp
TYPE : TSP
DIMENSION : 20
EDGE_WEIGHT_TYPE : EUC_2D
NODE_COORD_SECTION
1 443 537
2 972 204
3 899 343
4 974 491
5 536 116
6 225 865
7 537 929
8 728 0
9 504 983
10 353 439
11 459 731
12 793 183
13 289 354
14 4 395
15 393 239
16 571 363
17 636 314
18 265 152
19 673 146
20 73 528
